NAME          
ROWS
 N  OBJ
 L  c4
 L  c5
 G  c1
 G  c2
 G  c3
COLUMNS
     trans[1,1] c4       1
     trans[1,1] c1       1
     trans[1,1] OBJ      0.225
     trans[2,1] c5       1
     trans[2,1] c1       1
     trans[2,1] OBJ      0.225
     trans[1,2] c4       1
     trans[1,2] c2       1
     trans[1,2] OBJ      0.153
     trans[2,2] c5       1
     trans[2,2] c2       1
     trans[2,2] OBJ      0.162
     trans[1,3] c4       1
     trans[1,3] c3       1
     trans[1,3] OBJ      0.162
     trans[2,3] c5       1
     trans[2,3] c3       1
     trans[2,3] OBJ      0.12599999999999997
RHS
    rhs       c4        350
    rhs       c5        600
    rhs       c1        325
    rhs       c2        300
    rhs       c3        275
RANGES
BOUNDS
 LO bounds    trans[1,1] 0
 PL bounds    trans[1,1]
 LO bounds    trans[2,1] 0
 PL bounds    trans[2,1]
 LO bounds    trans[1,2] 0
 PL bounds    trans[1,2]
 LO bounds    trans[2,2] 0
 PL bounds    trans[2,2]
 LO bounds    trans[1,3] 0
 PL bounds    trans[1,3]
 LO bounds    trans[2,3] 0
 PL bounds    trans[2,3]
ENDATA
